60

  0    1    2    3    1    2    3    4    2    3    4    5    3    4    5    6    4    5    6    7    5    6    7    8    6    7    8    9    7    8    9   10    8    9   10   11    9   10   11   12   10   11   12   13   11   12   13   14   12   13   14   15   13   14   15   16   14   15   16   17  
  1    0    1    2    2    1    2    3    3    2    3    4    4    3    4    5    5    4    5    6    6    5    6    7    7    6    7    8    8    7    8    9    9    8    9   10   10    9   10   11   11   10   11   12   12   11   12   13   13   12   13   14   14   13   14   15   15   14   15   16  
  2    1    0    1    3    2    1    2    4    3    2    3    5    4    3    4    6    5    4    5    7    6    5    6    8    7    6    7    9    8    7    8   10    9    8    9   11   10    9   10   12   11   10   11   13   12   11   12   14   13   12   13   15   14   13   14   16   15   14   15  
  3    2    1    0    4    3    2    1    5    4    3    2    6    5    4    3    7    6    5    4    8    7    6    5    9    8    7    6   10    9    8    7   11   10    9    8   12   11   10    9   13   12   11   10   14   13   12   11   15   14   13   12   16   15   14   13   17   16   15   14  
  1    2    3    4    0    1    2    3    1    2    3    4    2    3    4    5    3    4    5    6    4    5    6    7    5    6    7    8    6    7    8    9    7    8    9   10    8    9   10   11    9   10   11   12   10   11   12   13   11   12   13   14   12   13   14   15   13   14   15   16  
  2    1    2    3    1    0    1    2    2    1    2    3    3    2    3    4    4    3    4    5    5    4    5    6    6    5    6    7    7    6    7    8    8    7    8    9    9    8    9   10   10    9   10   11   11   10   11   12   12   11   12   13   13   12   13   14   14   13   14   15  
  3    2    1    2    2    1    0    1    3    2    1    2    4    3    2    3    5    4    3    4    6    5    4    5    7    6    5    6    8    7    6    7    9    8    7    8   10    9    8    9   11   10    9   10   12   11   10   11   13   12   11   12   14   13   12   13   15   14   13   14  
  4    3    2    1    3    2    1    0    4    3    2    1    5    4    3    2    6    5    4    3    7    6    5    4    8    7    6    5    9    8    7    6   10    9    8    7   11   10    9    8   12   11   10    9   13   12   11   10   14   13   12   11   15   14   13   12   16   15   14   13  
  2    3    4    5    1    2    3    4    0    1    2    3    1    2    3    4    2    3    4    5    3    4    5    6    4    5    6    7    5    6    7    8    6    7    8    9    7    8    9   10    8    9   10   11    9   10   11   12   10   11   12   13   11   12   13   14   12   13   14   15  
  3    2    3    4    2    1    2    3    1    0    1    2    2    1    2    3    3    2    3    4    4    3    4    5    5    4    5    6    6    5    6    7    7    6    7    8    8    7    8    9    9    8    9   10   10    9   10   11   11   10   11   12   12   11   12   13   13   12   13   14  
  4    3    2    3    3    2    1    2    2    1    0    1    3    2    1    2    4    3    2    3    5    4    3    4    6    5    4    5    7    6    5    6    8    7    6    7    9    8    7    8   10    9    8    9   11   10    9   10   12   11   10   11   13   12   11   12   14   13   12   13  
  5    4    3    2    4    3    2    1    3    2    1    0    4    3    2    1    5    4    3    2    6    5    4    3    7    6    5    4    8    7    6    5    9    8    7    6   10    9    8    7   11   10    9    8   12   11   10    9   13   12   11   10   14   13   12   11   15   14   13   12  
  3    4    5    6    2    3    4    5    1    2    3    4    0    1    2    3    1    2    3    4    2    3    4    5    3    4    5    6    4    5    6    7    5    6    7    8    6    7    8    9    7    8    9   10    8    9   10   11    9   10   11   12   10   11   12   13   11   12   13   14  
  4    3    4    5    3    2    3    4    2    1    2    3    1    0    1    2    2    1    2    3    3    2    3    4    4    3    4    5    5    4    5    6    6    5    6    7    7    6    7    8    8    7    8    9    9    8    9   10   10    9   10   11   11   10   11   12   12   11   12   13  
  5    4    3    4    4    3    2    3    3    2    1    2    2    1    0    1    3    2    1    2    4    3    2    3    5    4    3    4    6    5    4    5    7    6    5    6    8    7    6    7    9    8    7    8   10    9    8    9   11   10    9   10   12   11   10   11   13   12   11   12  
  6    5    4    3    5    4    3    2    4    3    2    1    3    2    1    0    4    3    2    1    5    4    3    2    6    5    4    3    7    6    5    4    8    7    6    5    9    8    7    6   10    9    8    7   11   10    9    8   12   11   10    9   13   12   11   10   14   13   12   11  
  4    5    6    7    3    4    5    6    2    3    4    5    1    2    3    4    0    1    2    3    1    2    3    4    2    3    4    5    3    4    5    6    4    5    6    7    5    6    7    8    6    7    8    9    7    8    9   10    8    9   10   11    9   10   11   12   10   11   12   13  
  5    4    5    6    4    3    4    5    3    2    3    4    2    1    2    3    1    0    1    2    2    1    2    3    3    2    3    4    4    3    4    5    5    4    5    6    6    5    6    7    7    6    7    8    8    7    8    9    9    8    9   10   10    9   10   11   11   10   11   12  
  6    5    4    5    5    4    3    4    4    3    2    3    3    2    1    2    2    1    0    1    3    2    1    2    4    3    2    3    5    4    3    4    6    5    4    5    7    6    5    6    8    7    6    7    9    8    7    8   10    9    8    9   11   10    9   10   12   11   10   11  
  7    6    5    4    6    5    4    3    5    4    3    2    4    3    2    1    3    2    1    0    4    3    2    1    5    4    3    2    6    5    4    3    7    6    5    4    8    7    6    5    9    8    7    6   10    9    8    7   11   10    9    8   12   11   10    9   13   12   11   10  
  5    6    7    8    4    5    6    7    3    4    5    6    2    3    4    5    1    2    3    4    0    1    2    3    1    2    3    4    2    3    4    5    3    4    5    6    4    5    6    7    5    6    7    8    6    7    8    9    7    8    9   10    8    9   10   11    9   10   11   12  
  6    5    6    7    5    4    5    6    4    3    4    5    3    2    3    4    2    1    2    3    1    0    1    2    2    1    2    3    3    2    3    4    4    3    4    5    5    4    5    6    6    5    6    7    7    6    7    8    8    7    8    9    9    8    9   10   10    9   10   11  
  7    6    5    6    6    5    4    5    5    4    3    4    4    3    2    3    3    2    1    2    2    1    0    1    3    2    1    2    4    3    2    3    5    4    3    4    6    5    4    5    7    6    5    6    8    7    6    7    9    8    7    8   10    9    8    9   11   10    9   10  
  8    7    6    5    7    6    5    4    6    5    4    3    5    4    3    2    4    3    2    1    3    2    1    0    4    3    2    1    5    4    3    2    6    5    4    3    7    6    5    4    8    7    6    5    9    8    7    6   10    9    8    7   11   10    9    8   12   11   10    9  
  6    7    8    9    5    6    7    8    4    5    6    7    3    4    5    6    2    3    4    5    1    2    3    4    0    1    2    3    1    2    3    4    2    3    4    5    3    4    5    6    4    5    6    7    5    6    7    8    6    7    8    9    7    8    9   10    8    9   10   11  
  7    6    7    8    6    5    6    7    5    4    5    6    4    3    4    5    3    2    3    4    2    1    2    3    1    0    1    2    2    1    2    3    3    2    3    4    4    3    4    5    5    4    5    6    6    5    6    7    7    6    7    8    8    7    8    9    9    8    9   10  
  8    7    6    7    7    6    5    6    6    5    4    5    5    4    3    4    4    3    2    3    3    2    1    2    2    1    0    1    3    2    1    2    4    3    2    3    5    4    3    4    6    5    4    5    7    6    5    6    8    7    6    7    9    8    7    8   10    9    8    9  
  9    8    7    6    8    7    6    5    7    6    5    4    6    5    4    3    5    4    3    2    4    3    2    1    3    2    1    0    4    3    2    1    5    4    3    2    6    5    4    3    7    6    5    4    8    7    6    5    9    8    7    6   10    9    8    7   11   10    9    8  
  7    8    9   10    6    7    8    9    5    6    7    8    4    5    6    7    3    4    5    6    2    3    4    5    1    2    3    4    0    1    2    3    1    2    3    4    2    3    4    5    3    4    5    6    4    5    6    7    5    6    7    8    6    7    8    9    7    8    9   10  
  8    7    8    9    7    6    7    8    6    5    6    7    5    4    5    6    4    3    4    5    3    2    3    4    2    1    2    3    1    0    1    2    2    1    2    3    3    2    3    4    4    3    4    5    5    4    5    6    6    5    6    7    7    6    7    8    8    7    8    9  
  9    8    7    8    8    7    6    7    7    6    5    6    6    5    4    5    5    4    3    4    4    3    2    3    3    2    1    2    2    1    0    1    3    2    1    2    4    3    2    3    5    4    3    4    6    5    4    5    7    6    5    6    8    7    6    7    9    8    7    8  
 10    9    8    7    9    8    7    6    8    7    6    5    7    6    5    4    6    5    4    3    5    4    3    2    4    3    2    1    3    2    1    0    4    3    2    1    5    4    3    2    6    5    4    3    7    6    5    4    8    7    6    5    9    8    7    6   10    9    8    7  
  8    9   10   11    7    8    9   10    6    7    8    9    5    6    7    8    4    5    6    7    3    4    5    6    2    3    4    5    1    2    3    4    0    1    2    3    1    2    3    4    2    3    4    5    3    4    5    6    4    5    6    7    5    6    7    8    6    7    8    9  
  9    8    9   10    8    7    8    9    7    6    7    8    6    5    6    7    5    4    5    6    4    3    4    5    3    2    3    4    2    1    2    3    1    0    1    2    2    1    2    3    3    2    3    4    4    3    4    5    5    4    5    6    6    5    6    7    7    6    7    8  
 10    9    8    9    9    8    7    8    8    7    6    7    7    6    5    6    6    5    4    5    5    4    3    4    4    3    2    3    3    2    1    2    2    1    0    1    3    2    1    2    4    3    2    3    5    4    3    4    6    5    4    5    7    6    5    6    8    7    6    7  
 11   10    9    8   10    9    8    7    9    8    7    6    8    7    6    5    7    6    5    4    6    5    4    3    5    4    3    2    4    3    2    1    3    2    1    0    4    3    2    1    5    4    3    2    6    5    4    3    7    6    5    4    8    7    6    5    9    8    7    6  
  9   10   11   12    8    9   10   11    7    8    9   10    6    7    8    9    5    6    7    8    4    5    6    7    3    4    5    6    2    3    4    5    1    2    3    4    0    1    2    3    1    2    3    4    2    3    4    5    3    4    5    6    4    5    6    7    5    6    7    8  
 10    9   10   11    9    8    9   10    8    7    8    9    7    6    7    8    6    5    6    7    5    4    5    6    4    3    4    5    3    2    3    4    2    1    2    3    1    0    1    2    2    1    2    3    3    2    3    4    4    3    4    5    5    4    5    6    6    5    6    7  
 11   10    9   10   10    9    8    9    9    8    7    8    8    7    6    7    7    6    5    6    6    5    4    5    5    4    3    4    4    3    2    3    3    2    1    2    2    1    0    1    3    2    1    2    4    3    2    3    5    4    3    4    6    5    4    5    7    6    5    6  
 12   11   10    9   11   10    9    8   10    9    8    7    9    8    7    6    8    7    6    5    7    6    5    4    6    5    4    3    5    4    3    2    4    3    2    1    3    2    1    0    4    3    2    1    5    4    3    2    6    5    4    3    7    6    5    4    8    7    6    5  
 10   11   12   13    9   10   11   12    8    9   10   11    7    8    9   10    6    7    8    9    5    6    7    8    4    5    6    7    3    4    5    6    2    3    4    5    1    2    3    4    0    1    2    3    1    2    3    4    2    3    4    5    3    4    5    6    4    5    6    7  
 11   10   11   12   10    9   10   11    9    8    9   10    8    7    8    9    7    6    7    8    6    5    6    7    5    4    5    6    4    3    4    5    3    2    3    4    2    1    2    3    1    0    1    2    2    1    2    3    3    2    3    4    4    3    4    5    5    4    5    6  
 12   11   10   11   11   10    9   10   10    9    8    9    9    8    7    8    8    7    6    7    7    6    5    6    6    5    4    5    5    4    3    4    4    3    2    3    3    2    1    2    2    1    0    1    3    2    1    2    4    3    2    3    5    4    3    4    6    5    4    5  
 13   12   11   10   12   11   10    9   11   10    9    8   10    9    8    7    9    8    7    6    8    7    6    5    7    6    5    4    6    5    4    3    5    4    3    2    4    3    2    1    3    2    1    0    4    3    2    1    5    4    3    2    6    5    4    3    7    6    5    4  
 11   12   13   14   10   11   12   13    9   10   11   12    8    9   10   11    7    8    9   10    6    7    8    9    5    6    7    8    4    5    6    7    3    4    5    6    2    3    4    5    1    2    3    4    0    1    2    3    1    2    3    4    2    3    4    5    3    4    5    6  
 12   11   12   13   11   10   11   12   10    9   10   11    9    8    9   10    8    7    8    9    7    6    7    8    6    5    6    7    5    4    5    6    4    3    4    5    3    2    3    4    2    1    2    3    1    0    1    2    2    1    2    3    3    2    3    4    4    3    4    5  
 13   12   11   12   12   11   10   11   11   10    9   10   10    9    8    9    9    8    7    8    8    7    6    7    7    6    5    6    6    5    4    5    5    4    3    4    4    3    2    3    3    2    1    2    2    1    0    1    3    2    1    2    4    3    2    3    5    4    3    4  
 14   13   12   11   13   12   11   10   12   11   10    9   11   10    9    8   10    9    8    7    9    8    7    6    8    7    6    5    7    6    5    4    6    5    4    3    5    4    3    2    4    3    2    1    3    2    1    0    4    3    2    1    5    4    3    2    6    5    4    3  
 12   13   14   15   11   12   13   14   10   11   12   13    9   10   11   12    8    9   10   11    7    8    9   10    6    7    8    9    5    6    7    8    4    5    6    7    3    4    5    6    2    3    4    5    1    2    3    4    0    1    2    3    1    2    3    4    2    3    4    5  
 13   12   13   14   12   11   12   13   11   10   11   12   10    9   10   11    9    8    9   10    8    7    8    9    7    6    7    8    6    5    6    7    5    4    5    6    4    3    4    5    3    2    3    4    2    1    2    3    1    0    1    2    2    1    2    3    3    2    3    4  
 14   13   12   13   13   12   11   12   12   11   10   11   11   10    9   10   10    9    8    9    9    8    7    8    8    7    6    7    7    6    5    6    6    5    4    5    5    4    3    4    4    3    2    3    3    2    1    2    2    1    0    1    3    2    1    2    4    3    2    3  
 15   14   13   12   14   13   12   11   13   12   11   10   12   11   10    9   11   10    9    8   10    9    8    7    9    8    7    6    8    7    6    5    7    6    5    4    6    5    4    3    5    4    3    2    4    3    2    1    3    2    1    0    4    3    2    1    5    4    3    2  
 13   14   15   16   12   13   14   15   11   12   13   14   10   11   12   13    9   10   11   12    8    9   10   11    7    8    9   10    6    7    8    9    5    6    7    8    4    5    6    7    3    4    5    6    2    3    4    5    1    2    3    4    0    1    2    3    1    2    3    4  
 14   13   14   15   13   12   13   14   12   11   12   13   11   10   11   12   10    9   10   11    9    8    9   10    8    7    8    9    7    6    7    8    6    5    6    7    5    4    5    6    4    3    4    5    3    2    3    4    2    1    2    3    1    0    1    2    2    1    2    3  
 15   14   13   14   14   13   12   13   13   12   11   12   12   11   10   11   11   10    9   10   10    9    8    9    9    8    7    8    8    7    6    7    7    6    5    6    6    5    4    5    5    4    3    4    4    3    2    3    3    2    1    2    2    1    0    1    3    2    1    2  
 16   15   14   13   15   14   13   12   14   13   12   11   13   12   11   10   12   11   10    9   11   10    9    8   10    9    8    7    9    8    7    6    8    7    6    5    7    6    5    4    6    5    4    3    5    4    3    2    4    3    2    1    3    2    1    0    4    3    2    1  
 14   15   16   17   13   14   15   16   12   13   14   15   11   12   13   14   10   11   12   13    9   10   11   12    8    9   10   11    7    8    9   10    6    7    8    9    5    6    7    8    4    5    6    7    3    4    5    6    2    3    4    5    1    2    3    4    0    1    2    3  
 15   14   15   16   14   13   14   15   13   12   13   14   12   11   12   13   11   10   11   12   10    9   10   11    9    8    9   10    8    7    8    9    7    6    7    8    6    5    6    7    5    4    5    6    4    3    4    5    3    2    3    4    2    1    2    3    1    0    1    2  
 16   15   14   15   15   14   13   14   14   13   12   13   13   12   11   12   12   11   10   11   11   10    9   10   10    9    8    9    9    8    7    8    8    7    6    7    7    6    5    6    6    5    4    5    5    4    3    4    4    3    2    3    3    2    1    2    2    1    0    1  
 17   16   15   14   16   15   14   13   15   14   13   12   14   13   12   11   13   12   11   10   12   11   10    9   11   10    9    8   10    9    8    7    9    8    7    6    8    7    6    5    7    6    5    4    6    5    4    3    5    4    3    2    4    3    2    1    3    2    1    0  

  0    0    0    0    0    0    0    0    0    0    0    0    1   32    0   30    1    0    0    0    1    0    0    0    1    2    0    3    0    1    0    0    0    0    0    0    0    0    0    1    0    0    0    0   43   82    0    0    0    0    1    0    0    0    0    1    0    1    0    0  
  0    0   33    0    0    0    0    0    0    0    0    0    0    0    0    0    0    0    0    0    0   38    0    0    0    0    0    0    1    0    0    0    0    0    0    1    0   35    0    0    0   20    0    0    0    1    1    0    1    0   20    0    0    0    0    0    0    0    0    0  
  0    0    0    0    0    0    0    0    0    0    1   43    0    0    0    0    1    0    0    0    0    0    0    1    0    0    0    0    0    0    0    0    0    2    4    0    0   40   62    0    0   96    0    2    0    0    0    1    0    1    0    0    1    0    5    0    0    0    0    0  
  0    0    0    0   27    0    0    0    0    0    0    0    0    0    0    1    1    0    0    0    0    0    0    2    0    0    0    0    0    0    0   40    0    0    0    0    0    0    0    0    1    0    0    0    0    0    0    1    0    1   16    0    0    0    0    0    1    0    0   78  
  0    0    0   10    0    0    0    0    0    0    0    0    0    0    0    1    1    0    0    0    0    0    0    1    0    0    0    0    0    0    0    9    0    0    0    0    0    0    0    0    1    0    0    0   27    0    0    0    0    0    0    0    0    0    0    0   46    0    0    5  
  0    0    0    0    0    0    0    0    1    1    0    0    0    0   17    0    0   22    0    1    0    0    0    0    0    0    0    0    0    8    0    0    0    0    0    0    0    0    0    0    0    0    0    0    0    0    0    0   30    0    0    0    0    0    0    0    0    0    0    0  
  0    0    0    0    0    0    0    1   13    1    0    0    0    0    3    0    0    0   43    6    0    0    0    0    0    0    0    0    0    0    0    0    0    0    0    0    0    0    0    0    1    0    0    0    0    0    0    0    0    0    0    0    0    0    0    0    0    0   45    0  
  0    0    0    0    0    0    1    0   51    2    0    0    0    0    1    0    0    0    6    7    0    0    0    0    2    0    0    1    0    0    0    0    1    0    0    0    0    0    0    0    0    0    0    0    2    0    0    0    0    0    0    0    0    0    0    0    0    0   13    0  
  0    0    0    0    0    1    1   66    0    1    0    1    0    0    1    0    0    0   28   11    0    0    0    0   15    0    0    1    0    0    0    0   51    0    0   57    0    0    0    0    0    0    0    0   23    0    0    0    0    0    0    0    0    0    0    0    0    0    1    0  
  0    0    0    0    0   11    1   84    1    0    0    0    0    0   25    0    0    0    1    1    0    0    0    0    5    0    0    8    1    0    0   10    1    0    0    0    0    0    0    0    0    0    0    0   19    0    0    0    0    0    0    0    0    0    0    0    0    0    0    0  
 49    0   18    0    0    0    0    0    0    0    0   16    0    0   37    0    0    0    0    0    0    1    0    0   26    0    0   48    1    0    0    0    1   39   22   17    0    0    0    0    0   12    0    0    4    0    6    0    0   45    0    0    1    0   67    0    0    0   79    0  
  0    0    1    0    0    0    1    0    3    0    2    0    0    0    1    0    0    0    1    0    0    1    0    0    3    0    0    9    0    0    0    0   25   20    1    0    1    0    0    0    0    1    0    0    3    0    0    0    1    1    0    0    1    1    1    0    0    0   18    0  
 39    0    0    0    0    0    0    0    0    0    0    0    0    1    0    0    0    0    0    0    1    0    1    0    0    1    0    0    0    0   56    0    0    0    0    0    0    0   67    1    0    0    1    0    0    0    0    0    0    0   39   22    0    0    0    6    0    5    0    0  
 48    0    0    0    0   23    0    0    0    1    2    0   94    0    0    0    0    0    0    0    1    0    1    0    0    1    0    0    0    0    1    0    0    1    0    0    0    0   25    1    0    0   88    0    0    0    1    1    0    0    2   48    0    0    0    1    0    1    0    0  
  0    1    0    0    0   64    1    1    1    1    1    1    7    0    0    0    0    0    1    1    0    1    0    0   21    0    0    1    0    0    0    0   23    2    0    0    0    0    0    0    0    0    0    0   58    0    0    0    0   20    0    0    0    0    1    0    0    0   19    0  
 22    0    0  100    1    0    0    0   11    0    0    0    0    0    0    0   94    0    8    0    0    0    0    1    0    0    0    0    0    0    0   11    0    0    0    0    0    0    0    0    2    0    0    0    0    0    0    0    0    0    0    0    0    0    0    0   10   97    0    2  
  0    0    6   87    1    0    0    0    0    0    0    0    0    0    0   22    0    0    0    0    0    0    4    2    0    0    0    0    0    0    0    2    0    0   10    0    0    2    0    0    4    0    0    1    0    1    0    0    0    0    0    0    0    0    0    1   44    0    0    0  
  0    0    0    0    1    1    0    0    0    0    0    0    0    0    0    0    0    0    0    1    0    0    0    0    0    0   68    0    0    2    1    0    0    0    0    0    0    0    0    0    0    0    0    0    0    0    0    0   12    0    0    0    0   50    0    0    0    0    0    0  
  0    0    0    0    0    0    1    1    6    1    0    0    0    0    1    0    0    0    0   28    0    0    0    0    0   13    0    0    0    0   10    0    0    0    0    0    0    0    0    0    0    0    0    0    0    0    0    0    0    0    0    0    0    0    0    0    0    0    0    0  
  0    0    0    0   16    7    1   27    1    1    1    0    0    0    4    0    0    1    1    0    0    0    0    0    0    0    0    0    0    0    0    0    0    0    0    0    0    0    0    0    0    0    0    0    0   21    0    0    0    0    0    0    0    0    0   15    0    0    0    0  
  1    0    6    0    0    0    0    0    0    0    0    0    1   38    0    0    0    0    0    0    0    0    1    0    0    1    0    0    0    0   99    0    0    0    0    0    0    0   68    8    0    0   20    0    0    0    3   60    0    0    1    0    0    0    0    1    0   14    0    0  
  0   66    0    0    0    1    0    0    0    0    1    1    0    0   37    0    0    1    0   76    0    0    0    0   59    0    0    6   44    0    0    0    1    1    0    8    0    0    0    0    0    4    0    1    8    0    0    0    0   34    0    0    3    0    0    0    0    0   57    0  
  0    0  100    0    0    0    0    0    0    0    0    0    1    2    0    0    0    0    0    0   23    0    0    0    0    5    0    0    0   13    1    0    0    1    0    0   10    0   85   12    0    1    1    0    0    0    0    0   55    0    1    1    0    0    0    3    0    1    2    0  
  0    0    3    1   68    0    0    0    0    0    0    0    0    0    0    7   93    0    0    0    0    0    0    0    0    0    0    0    0    0    0    1    0    0    2    0    0    1    0    1   85    0    0    4    0   90    0    0    0    0    0    0    0    0    0    0    1    0    0    0  
  0    0    0    0    0    0    0   37    1    2    4   19    0    0    1    0    0    0    0    0    0    7    0    0    0    0    0   42    1    0    0    0   67    1    0   30    0    0    0    0    0   74    0    0    1    0    0    0    0    1    0    0    1   83    1    0    0    0    3    0  
  0    0    0    0    0    0    0    0    0    0    0    0   10    1    0    0    0    0    0    0    1    0    1    0    0    0    0    0    0    1    3    0    0    0    0    0    0    0    1   50    0    0    9    0    0    0    0    0    0    0    1    5    0    0    0    1    0    1    0    0  
  0    0   31    0    0    0    0    0    0    0    0    0    0    0    0    1    0   16    0    0    0    0    6    0    0    0    0    0    0   22    1    1    0    0    1    0    0    0    1    0    1    0    1    0    0    0    0    1    7    0    0    0   63   24   25    0    0    0    0    0  
  0    0    0    0    0    0    0   21   95   79    1    1   26   68   20    0    0    0    0    0    0    5    0    0    1    0    0    0    1    0    0    0    1   27    0   26    0    0    0    0    0    1    0    0    1    0    0    0    0   31    0    0    1    0    1    0    0    0   24    0  
  0    1    0    0    0    0   17    0    0    0    1    0    0    0    0    0    0    0    0    0    0    1    0    0    2    0    0    1    0    0    0    0    0    1    0   49    0    0    0    0    0   37    0    0    0    0    1    0    0    0    1    1    0   48    0    0    0    0   36    0  
  0    0    0    0    0    1    0    0    0    0    0    0    0    0    0    0    0   53    0    0    0    0    2    0    0    0   13    0    0    0    6    0    0    0    0    0    0    0    0    0    0    0    0    0    0    0    0    0    6    0    0    0    0    1    0    0    0    0    0    0  
  0   91    0    0    0    0    0    0    0    0    0    0    1   83    0    0    0    1    1    0   79    0   23    0    1   85    2    0    0   40    0    0    0    0    0    0    1    0    1   11    0    0    1    0    0    0    0    0    0    0   65    1    0    1    0    1    0    0    0    0  
  0    0    0    6    1    0   76    0    0    0    0    0    0    0    0   92   47    0    0    0    0    0    0    1    0    0    0    0    0    0    0    0    0    0    0    0    0    1    0    0   11    0    0    0    0    2    0    0    0    0    0    0    0    0    0    0    4    0    0    0  
  0   36    0    0    0    0    0    1   23    1   43    1    0    0   20    0    0    0    7    1    0    1    0    0    1    0    0    1    0    0    0    0    0   78    1    0    0    1    0    0    0    6    0    0   64    0    0    0   20    1    0    0    1    0    1    0    0    0    1    0  
  0    0    1    0    0    0    0    0    0    0   46    1    0    0    1    0    0    0    0    0    0   31    0    0   60    0    0   15    1    0    0    0    1    0    0   78    0    0    0    0    0    1    0    0    1    0    0    0    0   88    1    0    1    0    1    0    0    0    1    0  
  0    0    1    0    0    0    0    0    0    0    2    1    0    0    0    0    1    0    0    0    0    0    0    1    0    0    0    0    0    0    0    0    0    0    0    0    0   18    2    0    0    0    0    2    0    0    0    1    0    1    0    0   34    0    3    0    0    0    0    0  
  0    1    0    0    0    0    0    0    0    1    1    0    0    0    0    0    1    0    0    0    0   13    0    0    1    0    0    5    1    0    0    0    0   10    0    0    0    0    9    0    0    5    0    0    0    0    0    0    1    0    0    0    0    0    0    0    0    0   12    0  
  0    0    0    0    0    0    0    0    0    0    0    0    0    0    0    0    0    0    0    0    0    0    8    0    0    0    0    0    0    0   36    0    0    0    0    0    0    0    0    0    0    0    0    0    0    0    0    0    0    0    0    3    0    0    0    0    0    0    0    0  
  0   40   64    0    0    0    0    0    0    7    0    0    0    0    0    0    1    0    0    0    0    0    0    1    0    0   47    0    0    0    0    1    0    0    1    0    0    0    0    0   37    1    0    1    0   26    1    0    0   10    3    0    0    0    0    0   84    0    0    0  
  0    0    1    0    0    0    0    0    0    0    0    0    0   51    0    0    0    0    0    0   21    0   25    0    0    1   12    0    0    0    2    0    0    0    1   44    0    0    0    1    0    0    1    0    0    0    0    1    6    0    1    0   13    1    1    1    0    0    0    0  
  1    0    0    0    0    0    0    0    0    0   29    0    1    3    0    0    0    0    0    0    1    0   82   40    0    1    0    0    0    0   87    0    0    0    0    0    0    0   27    0    0    0    1    0    0    0    0    1    0    0    1    0    0    0    0    1    0   36    0    0  
  0    0    0   61    1    0    0    0    0    0    0    0    0    0    0    6    1    0    0    0    0    0    0    2    0    0    0    0    0    0    0    7    0    0    0    0    0    2    0    0    0    0    0    1    0   15    0    0    0    0    0    0    0    0    0    0    6    0    0    0  
  0    7   40    0    0    0    0    0    0    6    1   29    0    0    0    0    0    1    0    0    0    1   41    0    1    0    1   46    2    0    0    0    4   52    0   17    0   64    0    0    0    0    0    0    1    9    1    0    0    1    0    0   63    0    0    0    0    0    4    0  
  0    0    0    1    0    0    0    0    1    0    0    0    1   20    0    0    0    0    0    0   92    0    1    0    0    1    6    0    0    0    1    0    0    0    0    0    0    0   12   10    0    0    0    0    0    0    0    2    0    0    1    4    0    1    0    4    0  100    0    0  
  0    0    1    0    0    0    0    0    0    0    0    0    0    0    1    0    1    0    0    0    0    0    0    8    0    0    0    0    0    1    0    0    0    0   57    0    0    1    0    0   32    0    0    0    0    7    0   16    0    5    0    0    1    0   29    0    3    0    0    0  
  0    0    0    0    0    0    0   30    1    1    1   40    0   66    1    0    0    0    0    0    0    6    0    0   14    0    0   64    0    0    0    0   43    2    0    0    0    0    0    0    0    5    0    0    0    0    0    0   28   24    0    0   35    0   19    0    0    0    1    0  
  0   10    0    0    0    0    0    0    0    0    0    0    0    0    0    0    1    0    1    0    0    0    0    8    0    0    0    0    0    0    0    1    0    0    0    0    0    2    0    0    7    2    0    1    0    0    4    0    0    0    0    0    0    0    0    0    0    0    0    0  
  0   42    0    0    1   60    0    0    0    0    0    0    0    0    5    0    0    0    0    0    0    0    0    0    0    0    0    0   70    0    0    0    0    0    0    0    0    1    0    0    0   38    0    0    0   29    0    0    0    0    0    0    0    0    0    0    0    0    0    0  
  2    0   27    0    0    0    0    0    1    0    0    0    0    0    0    0    0    0    0    0   46    0    0    0    0    0    2    0    0    0    0    0    0    0    3    0    0    0    1   19    0    0   14    8    0    0    0    0    0    1   11    0    1    3    1    0    0    0    0    0  
  0    0    0    0    0    1    0    0   16    0    0   30    0    0    0    0    0    7    0    0    0   23    0    0    0    0    1    0    0    1    0    0   81    0    0    0    0    0   30    0   73    0    0    0   79    0    0    0    0    9    0    0   15    5    3    0    0    0    1    0  
  0    0    1    0    0    1    0    1    1    0   68    1    0    1   64    0    0    0    0    0    0    4    0    0    1    0    0   41    4    0    0    0   13   28    2    0    0    0    0    0    0    1    0    1    1    0    0   40    6    0    0    0   48    0    2    0    0    0    1    0  
  1    0    0    0    0    0    0    0    0    0    0    0    1    7    0    0    0    0    0    0    5    0    1    0    1    1    0    0    0    0    1    0    0    0    0    0    0    0   18    1    0    0   21    0    0    0    0    6    0    0    0    1    0    0    0   11    0    1    0    0  
  0    0    0    1    0    0    0    0    0    0    0    0    1   90    0    0    0    0    0    0    0    0    1    0    0    1    3    3    0    0    1    1    0    0    0    0   15    0    0    0    0    0    8    0    0    0    0    0    0    0    2    0    0    0    0    1    0    0    0    0  
  7    0    1    0    0    0    1    0    0    0    3    1    0    0    0    0    0    0    0    4    0   35    0    0   16    0   42    1    0    0    0    8   65    1    6    0    0    0    1    0    0   99    0   43   30    0    0    1   58    1    0    0    0   49    1    0    0   33    0    0  
  0    0    0    0    0    0    0    0    0    0    0    0    0    0    0    0    6   24    0    0    0    0    0    0    0    0    1    0    0   57   15    0    0    0    0    0    0    0   23    0    0    0    1    0    0    0    0    2    2    0    0    0   79    0   54    0    0    0    0    0  
  0    0   18    0    0    0    1    0    0    0    1    1    0    0    1    0    0    0    0    0    0    0    0    0    1    0    1    1    3    0    0    0   98    1   70    0    0    0   20    0    0    0    0    1   56    0    0   56    7   13    0    0   56    1    0    0    0    0    0    8  
 49    0    0    0    0    0    0   33    0    0    0    0    1   42    0    0    0    0    0    0    1    0   53    0    0    1    0    0    0    0    1    0    0    0    0    0    0    0   20    1    0    0    9    0    0    0    0    0    0    0   34    1    0    0    0    0    0    1    1    0  
  0    0    0    1   42   39    0    0    0    0    0    0    0    0    0    6    1    0    0    0    0    0    0    3    0    0    0    0    0    0    0    1    0    0    0    0    0   31    0    0    4    0    0    1    0    0    0    0    0    0    0    0    0    0    0    0    0    0    0   11  
 30    0    0    0    0    0    0    0    0    0    0    0   69   40    0    1    0    0    0    0   18    0    0    0    0   69    0    0    0    0    0    0    0    0    0    0    0    0    0   91    0    0    5    0    0    0    0    0    0    0    2    0    0    0    0    1    0    0    0    0  
  0    0    0    0    0    0    0   48    1    0    5    1    0    0   36    0    0    0    0    0    0    1    0    0    9    0    0    5    1    0    0    0   20    3    0   13    0    0    0    0    0    1    0    0    9    0    0    0    0   12    0    0    0    0    0    0    0    0    0    0  
  0    0    0   52   26    0    0    0    0    0    1    2    0    0    0    1    0    0    0    0    0    0    0    0    1    0    0    0    0    0   11    0    0    0    0    0    0    0    0    0    0    0    0    0    0    0    0    0    0    0    0    0    0    0    0    0   23    0    0    0  
